91
150
105	4
104	6
103	8
102	1
101	4
100	5
99	9
98	6
97	7
96	3
95	6
94	5
93	3
92	6
91	3
90	7
89	5
88	5
87	4
86	6
85	6
84	7
83	5
82	7
81	6
80	4
79	9
78	5
77	8
76	5
75	7
74	7
73	6
72	8
71	10
70	4
69	5
68	5
67	5
66	4
65	2
64	6
63	4
62	6
61	7
60	8
59	9
58	9
57	8
56	2
55	4
54	2
53	6
52	5
51	4
50	2
49	8
48	5
47	1
46	7
45	2
44	2
43	5
42	5
41	6
40	7
39	7
38	4
37	4
36	6
35	6
34	7
33	2
32	6
31	5
30	4
29	3
28	4
27	5
26	6
25	7
24	7
23	2
22	8
21	8
20	5
19	10
18	7
17	7
16	5
15	7
